NAME: Tnm124
COMMENT: Recalculated optimal tour for Tnm124, using LKH got a tour of length 1813276.0
TYPE: TOUR
DIMENSION: 124
TOUR_SECTION:
1
4
101
104
7
10
13
16
19
22
25
28
31
34
37
40
107
110
113
116
119
122
118
121
124
123
120
117
114
111
43
46
49
52
55
58
61
64
67
70
73
76
79
82
85
88
91
102
94
97
2
5
8
11
105
108
14
17
20
23
26
29
32
35
38
41
44
47
50
53
56
59
62
65
68
71
74
77
80
115
112
109
106
103
83
86
89
92
100
95
98
3
6
9
12
15
18
21
24
27
30
33
36
39
42
45
48
51
54
57
60
63
66
69
72
75
78
81
84
87
90
93
96
99 
-1
EOF
